NAME : B-n51-k7
COMMENT : (Augerat et al, Min no of trucks: 7, Optimal value: 1032)
TYPE : CVRP
DIMENSION : 51
EDGE_WEIGHT_TYPE : EUC_2D 
CAPACITY : 100
NODE_COORD_SECTION 
 1 53 55
 2 1 90
 3 94 85
 4 13 19
 5 97 45
 6 78 69
 7 92 35
 8 98 36
 9 99 0
 10 2 94
 11 85 77
 12 94 42
 13 101 3
 14 103 51
 15 106 38
 16 9 95
 17 88 71
 18 83 77
 19 100 55
 20 17 23
 21 3 91
 22 6 91
 23 9 102
 24 9 95
 25 8 104
 26 9 99
 27 98 39
 28 101 8
 29 99 38
 30 103 54
 31 3 103
 32 101 7
 33 103 8
 34 20 25
 35 97 93
 36 0 51
 37 81 70
 38 103 7
 39 95 87
 40 102 54
 41 83 72
 42 101 10
 43 105 48
 44 96 40
 45 5 91
 46 9 96
 47 10 100
 48 9 96
 49 22 21
 50 2 95
 51 9 95
DEMAND_SECTION 
1 0 
2 9 
3 10 
4 14 
5 5 
6 8 
7 10 
8 15 
9 16 
10 23 
11 4 
12 22 
13 16 
14 12 
15 20 
16 18 
17 9 
18 17 
19 42 
20 9 
21 17 
22 7 
23 4 
24 7 
25 13 
26 6 
27 22 
28 6 
29 13 
30 21 
31 16 
32 20 
33 11 
34 18 
35 24 
36 26 
37 9 
38 21 
39 3 
40 22 
41 7 
42 10 
43 17 
44 8 
45 10 
46 12 
47 10 
48 24 
49 5 
50 10 
51 6 
DEPOT_SECTION 
 1  
 -1  
NODE_PRIORITY_SECTION
1 0
2 1
3 2
4 1
5 2
6 3
7 2
8 2
9 1
10 1
11 3
12 2
13 1
14 2
15 2
16 1
17 3
18 3
19 2
20 1
21 1
22 1
23 1
24 1
25 1
26 1
27 2
28 1
29 2
30 2
31 1
32 1
33 1
34 2
35 2
36 1
37 3
38 1
39 2
40 2
41 3
42 1
43 2
44 2
45 1
46 1
47 1
48 1
49 2
50 1
51 1
EOF
